&INPUT
   prefix = 'Si'
   work_dir = './'
   wfn_name = 'wfn.dat'
/
