
&INPUT
   prefix='Si2'
   work_dir='./'
   wfn_name='wfnq.dat'
/

